* ENCODING=ISO-8859-1
NAME          CPLEX
ROWS
 N  obj1    
 G  c1      
 G  c2      
 G  c3      
 G  c4      
 G  c5      
 G  c6      
 G  c7      
 G  c8      
 G  c9      
 G  c10     
 G  c11     
 G  c12     
 G  c13     
 G  c14     
 G  c15     
 G  c16     
 G  c17     
 G  c18     
 G  c19     
 G  c20     
 G  c21     
 G  c22     
 G  c23     
 G  c24     
 G  c25     
COLUMNS
    MARK0000  'MARKER'                 'INTORG'
    x1        obj1                            1
    x1        c13                           419
    x1        c19                           285
    x2        obj1                            1
    x2        c23                           878
    x3        obj1                            1
    x3        c3                            574
    x3        c15                           428
    x3        c17                           105
    x3        c20                           592
    x3        c21                           272
    x4        obj1                            1
    x4        c7                            578
    x4        c8                            164
    x4        c11                           174
    x5        obj1                            1
    x5        c4                            501
    x5        c14                           841
    x6        obj1                            1
    x6        c6                            451
    x6        c11                           105
    x7        obj1                            1
    x7        c10                           854
    x7        c11                           937
    x7        c18                           811
    x7        c24                           186
    x8        obj1                            1
    x8        c3                            892
    x8        c22                           816
    x9        obj1                            1
    x9        c9                            575
    x9        c12                           930
    x9        c24                           952
    x10       obj1                            1
    x10       c3                            306
    x10       c7                            566
    x10       c9                            310
    x10       c10                           188
    x10       c15                           862
    x11       obj1                            1
    x11       c6                            715
    x12       obj1                            1
    x12       c13                           832
    x13       obj1                            1
    x14       obj1                            1
    x14       c1                            853
    x14       c9                            459
    x14       c11                           239
    x14       c15                           211
    x14       c20                           512
    x15       obj1                            1
    x15       c9                            909
    x15       c24                           401
    x16       obj1                            1
    x16       c5                            373
    x16       c8                            348
    x16       c17                           911
    x16       c22                           108
    x17       obj1                            1
    x17       c5                            373
    x17       c10                           436
    x18       obj1                            1
    x18       c14                           360
    x18       c15                           763
    x18       c20                           140
    x19       obj1                            1
    x19       c24                           607
    x20       obj1                            1
    x20       c4                            788
    x20       c16                           796
    x20       c24                           504
    x21       obj1                            1
    x21       c1                            322
    x22       obj1                            1
    x22       c2                            356
    x22       c4                            363
    x23       obj1                            1
    x23       c19                           343
    x23       c21                           282
    x24       obj1                            1
    x24       c9                            410
    x24       c18                           647
    x24       c25                           254
    x25       obj1                            1
    x25       c1                            737
    x25       c14                           663
    x26       obj1                            1
    x26       c2                            759
    x26       c19                           830
    x26       c21                           736
    x26       c23                           240
    x27       obj1                            1
    x27       c2                            202
    x27       c7                            640
    x27       c12                           714
    x27       c13                           931
    x27       c15                           919
    x27       c18                           180
    x27       c21                           802
    x27       c23                           730
    x28       obj1                            1
    x28       c12                           457
    x29       obj1                            1
    x29       c3                            627
    x29       c6                            182
    x29       c12                           665
    x29       c13                           847
    x30       obj1                            1
    x30       c2                            618
    x30       c15                           743
    x30       c18                           887
    x30       c23                           374
    x31       obj1                            1
    x31       c5                            891
    x31       c19                           393
    x32       obj1                            1
    x32       c5                            751
    x32       c6                            309
    x33       obj1                            1
    x33       c6                            494
    x33       c9                            256
    x34       obj1                            1
    x34       c25                           762
    x35       obj1                            1
    x35       c6                            323
    x36       obj1                            1
    x36       c7                           1000
    x36       c13                           373
    x37       obj1                            1
    x37       c5                            986
    x37       c16                           794
    x37       c24                           609
    x38       obj1                            1
    x38       c13                           978
    x38       c15                           695
    x38       c20                           197
    x39       obj1                            1
    x39       c9                            240
    x39       c19                           955
    x39       c22                           367
    x40       obj1                            1
    x40       c2                            322
    x40       c3                            964
    x40       c5                            722
    x41       obj1                            1
    x41       c7                            332
    x41       c23                           966
    x42       obj1                            1
    x42       c4                            511
    x42       c19                           343
    x42       c22                           402
    x43       obj1                            1
    x43       c2                            376
    x43       c4                            138
    x43       c17                           303
    x44       obj1                            1
    x44       c3                            371
    x44       c7                            435
    x44       c16                           515
    x45       obj1                            1
    x45       c4                            708
    x45       c6                            123
    x45       c10                           839
    x45       c14                           757
    x46       obj1                            1
    x46       c5                            242
    x46       c12                           865
    x47       obj1                            1
    x47       c3                            984
    x47       c8                            528
    x48       obj1                            1
    x49       obj1                            1
    x49       c4                            286
    x49       c24                           706
    x49       c25                           903
    x50       obj1                            1
    x50       c14                           810
    x50       c23                           105
    MARK0001  'MARKER'                 'INTEND'
RHS
    rhs       c1                            956
    rhs       c2                           1317
    rhs       c3                           2359
    rhs       c4                           1648
    rhs       c5                           2169
    rhs       c6                           1299
    rhs       c7                           1776
    rhs       c8                            520
    rhs       c9                           1580
    rhs       c10                          1159
    rhs       c11                           728
    rhs       c12                          1816
    rhs       c13                          2190
    rhs       c14                          1716
    rhs       c15                          2311
    rhs       c16                          1053
    rhs       c17                           660
    rhs       c18                          1263
    rhs       c19                          1575
    rhs       c20                           721
    rhs       c21                          1046
    rhs       c22                           847
    rhs       c23                          1647
    rhs       c24                          1983
    rhs       c25                           960
BOUNDS
 LI bnd       x1        0
 LI bnd       x2        0
 LI bnd       x3        0
 LI bnd       x4        0
 LI bnd       x5        0
 LI bnd       x6        0
 LI bnd       x7        0
 LI bnd       x8        0
 LI bnd       x9        0
 LI bnd       x10       0
 LI bnd       x11       0
 LI bnd       x12       0
 LI bnd       x13       0
 LI bnd       x14       0
 LI bnd       x15       0
 LI bnd       x16       0
 LI bnd       x17       0
 LI bnd       x18       0
 LI bnd       x19       0
 LI bnd       x20       0
 LI bnd       x21       0
 LI bnd       x22       0
 LI bnd       x23       0
 LI bnd       x24       0
 LI bnd       x25       0
 LI bnd       x26       0
 LI bnd       x27       0
 LI bnd       x28       0
 LI bnd       x29       0
 LI bnd       x30       0
 LI bnd       x31       0
 LI bnd       x32       0
 LI bnd       x33       0
 LI bnd       x34       0
 LI bnd       x35       0
 LI bnd       x36       0
 LI bnd       x37       0
 LI bnd       x38       0
 LI bnd       x39       0
 LI bnd       x40       0
 LI bnd       x41       0
 LI bnd       x42       0
 LI bnd       x43       0
 LI bnd       x44       0
 LI bnd       x45       0
 LI bnd       x46       0
 LI bnd       x47       0
 LI bnd       x48       0
 LI bnd       x49       0
 LI bnd       x50       0
ENDATA
